3 24 1 10
3 5 14 9 20 2 4 19 1 1 15 18 8 4 11 2 2 19 4 6 14 7 13 7 
6.83 2.58 7.7 7.68 2.88 4.45 4.96 2.88 3.58 1.15 4.04 4.94 3.13 4.37 7.82 4.01 4.99 7.63 1.14 5.71 5.58 1.36 7.73 5.29 
4 4 4 4 4 4 4 4 4 4 4 4 4 4 4 4 4 4 4 4 4 4 4 4 
7.16 4.63 4.46 2.27 0.12 6.74 6.44 3.59 7.45 6.93 5.87 3.86 3.43 1.31 3.05 2.37 5.96 5.09 0.86 1.77 6.28 6.34 3.99 1 
1 1 1 1 1 1 1 1 1 1 1 1 1 1 1 1 1 1 1 1 1 1 1 1 
1 1 1 1 1 1 1 1 1 1 1 1 1 1 1 1 1 1 1 1 1 1 1 1 
1 1 1 1 1 1 1 1 1 1 1 1 1 1 1 1 1 1 1 1 1 1 1 1 
0.01 0.01 0.01 0.01 0.01 0.01 0.01 0.01 0.01 0.01 0.01 0.01 0.01 0.01 0.01 0.01 0.01 0.01 0.01 0.01 0.01 0.01 0.01 0.01 
0.02 0.02 0.02 0.02 0.02 0.02 0.02 0.02 0.02 0.02 0.02 0.02 0.02 0.02 0.02 0.02 0.02 0.02 0.02 0.02 0.02 0.02 0.02 0.02 
1 1 1 1 1 1 1 1 1 1 1 1 1 1 1 1 1 1 1 1 1 1 1 1 
